(set-info :smt-lib-version 2.8)
(set-logic QF_EIA)
(set-info :source |
Generated by: Florian Frohn
Generator: LoAT
Application: proving unsatisfiability of CHCs
Target solver: SwInE
Time limit: 1.0
Benchmarks generated by the verification tool LoAT to evaluate the SMT solver
SwInE. We extracted all benchmarks with exponentiation that were generated by
LoAT when analyzing the examples from the category LIA-Lin (linear CHCs with
linear integer arithmetic) of the CHC competitions 2022 and 2023, and when
analyzing the examples from the categories "Termination of Integer Transition
Systems" and "Complexity of Integer Transition Systems" of the Termination and
Complexity Competition 2024. From the entire set, we selected those where
* SwInE v0.1.0 or SwInE-Z3 v0.1.2 failed or needed more than 1 second, or
* SwInE-Z3 v0.1.2 failed without phasing, a technique to prevent SwInE from
  computing with huge constants (described here
  https://arxiv.org/abs/2502.04761)
If several selected benchmarks only differed in lines not containing
exponentiation, we kept only one of them. This benchmark is known to be
satisfiable with the slightly different semantics of exponentiation used by the
versions of SwInE mentioned above.
|)
(set-info :license "https://creativecommons.org/licenses/by/4.0/")
(set-info :category "industrial")
(set-info :status unknown)

(declare-fun i1 () Int)
(declare-fun it1100 () Int)
(declare-fun it15 () Int)
(declare-fun it1101 () Int)
(declare-fun it14 () Int)
(declare-fun it1102 () Int)
(declare-fun it1103 () Int)
(declare-fun it13 () Int)
(declare-fun bt1173 () Bool)
(declare-fun bt1174 () Bool)
(declare-fun bt1175 () Bool)
(declare-fun bt1176 () Bool)
(declare-fun it17 () Int)
(declare-fun it16 () Int)
(declare-fun it18 () Int)
(declare-fun bt25 () Bool)
(declare-fun bt28 () Bool)
(declare-fun bt26 () Bool)
(declare-fun bt27 () Bool)
(declare-fun it1107 () Int)
(declare-fun it1108 () Int)
(declare-fun it1109 () Int)
(declare-fun it1110 () Int)
(declare-fun bt1177 () Bool)
(declare-fun bt1178 () Bool)
(declare-fun bt1179 () Bool)
(declare-fun bt1180 () Bool)
(declare-fun it1082 () Int)
(declare-fun it1325 () Int)
(declare-fun it1326 () Int)
(declare-fun it1327 () Int)
(declare-fun it1328 () Int)
(declare-fun bt1409 () Bool)
(declare-fun bt1410 () Bool)
(declare-fun bt1411 () Bool)
(declare-fun bt1412 () Bool)
(declare-fun bt1183 () Bool)
(declare-fun bt1184 () Bool)
(declare-fun it1113 () Int)
(declare-fun it1112 () Int)
(declare-fun bt1182 () Bool)
(declare-fun bt1181 () Bool)
(declare-fun it1111 () Int)
(assert (= (+ i1 (- 1)) 0))
(assert (= (+ it1100 (- 2)) 0))
(assert (= (+ it1101 (* it15 (- 1))) 0))
(assert (= (+ it1102 (* it14 (- 1))) 0))
(assert (= (+ (* it13 (- 1)) it1103) 0))
(assert (or (not bt1173) (and false bt1173)))
(assert (or bt1174 (and false (not bt1174))))
(assert (or (not bt1175) (and false bt1175)))
(assert (or (not bt1176) (and false bt1176)))
(assert (and bt27
     (not bt26)
     (not bt28)
     (not bt25)
     (= (+ it18 (- 1)) 0)
     bt1174
     (= (+ (* it16 (- 1)) it1103) 0)
     (not bt1176)
     (= (+ it1102 (* it17 (- 1))) 0)
     (not bt1173)
     (= (+ it1100 (- 2)) 0)
     (not bt1175)))
(assert (= (+ it1107 (- 2)) 0))
(assert (= (+ (* it18 (- 1)) it1108) 0))
(assert (= (+ it1109 (* it17 (- 1))) 0))
(assert (= (+ (* it16 (- 1)) it1110) 0))
(assert (or (and bt27 bt1177) (and (not bt27) (not bt1177))))
(assert (or (and (not bt28) (not bt1178)) (and bt28 bt1178)))
(assert (or (and (not bt26) (not bt1179)) (and bt26 bt1179)))
(assert (or (and (not bt25) (not bt1180)) (and bt25 bt1180)))
(assert (let ((a!1 (+ (+ 0 it1110)
              (* (** 2 (+ it1082 (- 1))) (+ 0 it1108) (+ 0 (- 1))))))
  (and (not bt1180)
       (not bt1178)
       (not bt1179)
       (>= (+ it1082 (- 1)) 0)
       bt1177
       (> it1109 0)
       (> (+ (* it1108 (- 1)) it1110) 0)
       (>= (+ it1107 (- 2)) 0)
       (>= (+ (* it1107 (- 1)) 2) 0)
       (> a!1 (+ 0 0)))))
(assert (= (+ it1325 (* it1107 (- 1))) 0))
(assert (= (+ (* (+ 0 it1108) (** 2 it1082) (+ 0 (- 1))) (+ 0 it1326))
   (+ 0 0)))
(assert (= (+ it1327 (* it1109 (- 1))) 0))
(assert (= (+ it1328 (* it1110 (- 1))) 0))
(assert (or (and false (not bt1409)) bt1409))
(assert (or (not bt1410) (and false bt1410)))
(assert (or (and false bt1411) (not bt1411)))
(assert (or (and false bt1412) (not bt1412)))
(assert (and (not bt1410)
     (> it1327 0)
     (= (+ (* it1111 (- 1)) it1326) 0)
     bt1181
     bt1182
     (= (+ it1327 (* it1112 (- 1))) 0)
     (not bt1411)
     (= (+ it1328 (* it1113 (- 1))) 0)
     bt1409
     (not bt1184)
     (= (+ it1325 (- 2)) 0)
     (not bt1183)
     (> (+ it1328 (* it1326 (- 1))) 0)
     (not bt1412)))
(check-sat)
(exit)
